(set-info :source |printed by MathSAT|)
(declare-fun time () Int)
(declare-fun stop () Bool)
(declare-fun move () Bool)
(declare-fun call_voiture.second () Bool)
(declare-fun call_Sofar.Sofar () Bool)
(declare-fun flby () Bool)
(declare-fun call_voiture.flby4 () Int)
(declare-fun toofast () Bool)
(declare-fun speed () Int)
(declare-fun second () Bool)
(declare-fun call_voiture.flby3 () Bool)
(declare-fun call_voiture.stop () Bool)
(declare-fun call_voiture.flby () Bool)
(declare-fun call_voiture.ite2 () Int)
(declare-fun env () Bool)
(declare-fun param_m () Bool)
(declare-fun param_s () Bool)
(declare-fun call_voiture.dist () Int)
(declare-fun dist () Int)
(declare-fun _OK_ () Bool)
(declare-fun call_voiture.move () Bool)
(declare-fun call_voiture.bump () Bool)
(declare-fun call_voiture.flby2 () Bool)
(declare-fun call_voiture.meter () Bool)
(declare-fun call_Sofar.flby () Bool)
(declare-fun bump () Bool)
(declare-fun call_voiture.time () Int)
(declare-fun call_excludes2.excludes () Bool)
(declare-fun call_voiture.flby6 () Int)
(declare-fun call_voiture.flby5 () Int)
(declare-fun call_voiture.speed () Int)
(declare-fun meter () Bool)
(declare-fun call_voiture.toofast () Bool)
(declare-fun call_voiture.ite3 () Int)
(define-fun .def_370 () Bool (= call_Sofar.flby call_Sofar.Sofar))
(define-fun .def_366 () Bool (and param_s param_m))
(define-fun .def_367 () Bool (not .def_366))
(define-fun .def_368 () Bool (= call_excludes2.excludes .def_367))
(define-fun .def_362 () Bool (= call_voiture.flby call_voiture.meter))
(define-fun .def_360 () Bool (= call_voiture.flby2 call_voiture.second))
(define-fun .def_357 () Bool (= call_voiture.flby3 call_voiture.move))
(define-fun .def_354 () Bool (= call_voiture.ite3 0))
(define-fun .def_350 () Bool (not call_voiture.move))
(define-fun .def_351 () Bool (or call_voiture.second .def_350))
(define-fun .def_353 () Bool (not .def_351))
(define-fun .def_355 () Bool (or .def_353 .def_354))
(define-fun .def_349 () Bool (= call_voiture.ite2 call_voiture.ite3))
(define-fun .def_352 () Bool (or .def_349 .def_351))
(define-fun .def_356 () Bool (and .def_352 .def_355))
(define-fun .def_358 () Bool (and .def_356 .def_357))
(define-fun .def_345 () Bool (= call_voiture.flby6 call_voiture.time))
(define-fun .def_343 () Bool (= call_voiture.flby5 call_voiture.speed))
(define-fun .def_341 () Bool (= call_voiture.flby4 call_voiture.dist))
(define-fun .def_338 () Bool (= call_voiture.dist 10))
(define-fun .def_339 () Bool (= call_voiture.bump .def_338))
(define-fun .def_335 () Bool (<= 4 call_voiture.time))
(define-fun .def_336 () Bool (= call_voiture.stop .def_335))
(define-fun .def_332 () Bool (<= 3 call_voiture.speed))
(define-fun .def_333 () Bool (= call_voiture.toofast .def_332))
(define-fun .def_330 () Bool (= env call_Sofar.Sofar))
(define-fun .def_326 () Bool (= meter call_voiture.meter))
(define-fun .def_322 () Bool (= second call_voiture.second))
(define-fun .def_318 () Bool (= move call_voiture.move))
(define-fun .def_314 () Bool (= time call_voiture.time))
(define-fun .def_310 () Bool (= speed call_voiture.speed))
(define-fun .def_306 () Bool (= dist call_voiture.dist))
(define-fun .def_302 () Bool (= bump call_voiture.bump))
(define-fun .def_298 () Bool (= stop call_voiture.stop))
(define-fun .def_294 () Bool (= toofast call_voiture.toofast))
(define-fun .def_291 () Bool (= flby _OK_))
(define-fun .def_295 () Bool (and .def_291 .def_294))
(define-fun .def_299 () Bool (and .def_295 .def_298))
(define-fun .def_303 () Bool (and .def_299 .def_302))
(define-fun .def_307 () Bool (and .def_303 .def_306))
(define-fun .def_311 () Bool (and .def_307 .def_310))
(define-fun .def_315 () Bool (and .def_311 .def_314))
(define-fun .def_319 () Bool (and .def_315 .def_318))
(define-fun .def_323 () Bool (and .def_319 .def_322))
(define-fun .def_327 () Bool (and .def_323 .def_326))
(define-fun .def_331 () Bool (and .def_327 .def_330))
(define-fun .def_334 () Bool (and .def_331 .def_333))
(define-fun .def_337 () Bool (and .def_334 .def_336))
(define-fun .def_340 () Bool (and .def_337 .def_339))
(define-fun .def_342 () Bool (and .def_340 .def_341))
(define-fun .def_344 () Bool (and .def_342 .def_343))
(define-fun .def_346 () Bool (and .def_344 .def_345))
(define-fun .def_359 () Bool (and .def_346 .def_358))
(define-fun .def_361 () Bool (and .def_359 .def_360))
(define-fun .def_363 () Bool (and .def_361 .def_362))
(define-fun .def_369 () Bool (and .def_363 .def_368))
(define-fun .def_371 () Bool (and .def_369 .def_370))
(define-fun .def_288 () Bool (= call_excludes2.excludes call_Sofar.flby))
(define-fun .def_284 () Bool (= call_voiture.flby6 0))
(define-fun .def_281 () Bool (= call_voiture.flby5 0))
(define-fun .def_278 () Bool (= call_voiture.flby4 0))
(define-fun .def_273 () Bool (not call_voiture.flby2))
(define-fun .def_269 () Bool (not call_voiture.flby))
(define-fun .def_271 () Bool (and .def_269 flby))
(define-fun .def_274 () Bool (and .def_271 .def_273))
(define-fun .def_276 () Bool (and .def_274 call_voiture.flby3))
(define-fun .def_279 () Bool (and .def_276 .def_278))
(define-fun .def_282 () Bool (and .def_279 .def_281))
(define-fun .def_285 () Bool (and .def_282 .def_284))
(define-fun .def_289 () Bool (and .def_285 .def_288))
(define-fun .def_372 () Bool (and .def_289 .def_371))
(assert .def_372)
